Route #1: 1 59 20 15 57 45 2 49 1 
Route #2: 1 1 42 28 35 58 12 51 1 
Route #3: 1 43 41 22 21 5 30 1 
Route #4: 1 23 24 55 40 44 3 16 1 
Route #5: 1 33 6 17 39 32 1 
Route #6: 1 48 13 8 53 26 4 1 
Route #7: 1 56 50 9 38 7 1 
Route #8: 1 47 37 29 54 19 52 34 1 
Route #9: 1 27 46 11 10 18 1 
Route #10: 1 36 14 31 25 1 

Cost 1295.06
Time 0.8330


 * Another infos *

 Iterations: 60 Time: 0.8330 sec - 0.0139 min - 0.0002 horas
0.0000 h 0.0139 min
Problem dimension: 60
